#water from net
dimension 3
processors * * 1
boundary p p p
units real
atom_style full
neighbor 2 bin
neigh_modify delay 0 every 1 check yes
read_data Initial_model.data

variable zwall equal 46.0

#Change the surface characterization parameters
variable epsihb equal 1.0       #The parameter ε in the Lennard-Jones potential between hydrophobic component atoms and substrate
variable epsihi equal 3.0       #The parameter ε in the Lennard-Jones potential between hydrophilic component atoms and substrate



mass    1   12.017000
mass    2   12.017000
mass    3   18.998403
mass    4   15.999400
mass    5   32.065000
mass    6   15.999400
mass    7   15.999400
mass    8   1.00794
mass    9   1.00794

#pair SPC
pair_style lj/cut/coul/long  15.0 15.0
    pair_coeff  1  1   0.0844 3.4600 15.0 
    pair_coeff  1  2   0.0896 3.4665 15.0 
    pair_coeff  1  3    0.0647 3.2425 15.0 
    pair_coeff  1  4    0.0899 3.2466 15.0 
    pair_coeff  1  5    0.1704 3.5252 15.0 
    pair_coeff  1  6   0.1249 3.3128  15.0 
    pair_coeff  1  7   0.1249 3.3128  15.0 
    pair_coeff  1  8   0.0291 2.1309  15.0 
    pair_coeff  1  9   0.0291 2.1309  15.0

    pair_coeff  2  2   0.0951 3.4730 15.0 
    pair_coeff  2  3    0.0687 3.2490 15.0 
    pair_coeff  2  4    0.0954 3.2531 15.0 
    pair_coeff  2  5    0.1809 3.5317 15.0 
    pair_coeff  2  6   0.1326 3.3193  15.0 
    pair_coeff  2  7   0.1326 3.3193  15.0 
    pair_coeff  2  8   0.0308 2.1374  15.0 
    pair_coeff  2  9   0.0308 2.1374  15.0

    pair_coeff  3   3    0.0496 3.0249 15.0 
    pair_coeff  3   4    0.0689 3.0291 15.0 
    pair_coeff  3   5    0.1306 3.3076 15.0 
    pair_coeff  3   6   0.0957 3.0952  15.0 
    pair_coeff  3   7   0.0957 3.0952  15.0 
    pair_coeff  3   8   0.0223 1.91335 15.0 
    pair_coeff  3   9   0.0223 1.91335 15.0

    pair_coeff  4   4    0.0957 3.0332 15.0 
    pair_coeff  4   5    0.1814 3.31175 15.0 
    pair_coeff  4   6   0.1330 3.09935  15.0 
    pair_coeff  4   7   0.1330 3.09935  15.0 
    pair_coeff  4   8   0.0309 1.9175   15.0 
    pair_coeff  4   9   0.0309 1.9175   15.0

    pair_coeff  5   5    0.3440 3.5903  15.0 
    pair_coeff  5   6   0.2521 3.3779   15.0 
    pair_coeff  5   7   0.2521 3.3779   15.0 
    pair_coeff  5   8   0.0587 2.19605  15.0 
    pair_coeff  5   9   0.0587 2.19605  15.0
    
    pair_coeff  6  6   0.1848 3.1655   15.0 
    pair_coeff  6  7   0.1848 3.1655   15.0 
    pair_coeff  6  8   0.0430 1.98365  15.0 
    pair_coeff  6  9   0.0430 1.98365  15.0

    pair_coeff  7  7   0.1848 3.1655   15.0 
    pair_coeff  7  8   0.0430 1.98365  15.0 
    pair_coeff  7  9   0.0430 1.98365  15.0

    pair_coeff  8  8   0.0100 0.8018   15.0 
    pair_coeff  8  9   0.0100 0.8018   15.0  

    pair_coeff  9  9   0.0100 0.8018   15.0 

#bond and angle
bond_style harmonic
    bond_coeff     1  214.6602   1.4982  #C1C1
    bond_coeff     2  350.0000   1.5300  #C2C2
    bond_coeff     3  350.0000   1.5300  #C1C2
    bond_coeff     4  350.0000   1.4200  #C2O
    bond_coeff     5  302.62975  1.3360  #CXF
    bond_coeff     6  350.0000   1.8000  #C2S
    bond_coeff     7  350.0000   1.4800  #SO
    bond_coeff     8  250.0000   1.0000  #OwHw
    bond_coeff     9  542.9783   0.9820  #OhHh

angle_style harmonic
    angle_coeff 1   53.13695  122.5536   #CxCxCx
    angle_coeff 2   50.16830  118.3191   #CxCxF
    angle_coeff 3   54.11980  121.5020   #FCxF
    angle_coeff 4   50.00000  109.4710   #CxCxO
    angle_coeff 5   50.00000  125.2300   #CxOCx
    angle_coeff 6   50.00000  109.5700   #OCxF
    angle_coeff 7   50.00000  110.3000   #FCxS
    angle_coeff 8   50.00000  116.8100   #CxCxS
    angle_coeff 9   175.0000  102.6500   #CxSO
    angle_coeff 10  175.0000  115.5000   #OSO
    angle_coeff 11  60.0000   109.4700   #HOHw
    angle_coeff 12  39.5132   113.4000   #HOWh

dihedral_style harmonic
    dihedral_coeff  1   0.5000  1  3     #*CxCx*
    dihedral_coeff  2   1.60855 -1 3     #C1C1C1C1
    dihedral_coeff  3   2.0611  -1 3     #FC1C1C1
    dihedral_coeff  4   2.0212  1  3     #FC1C1F
    dihedral_coeff  5   0.5000  1  3     #*CxO*
    dihedral_coeff  6   0.5000  1  3     #*CxS*

#charge
kspace_style pppm 0.0001

#define group
group nafion type  1 2 3 4 5 
group f3c    type  6 8
group h3o    type  7 9 
group water  union f3c h3o
group owater type 6 7
group hn     union water nafion
group ohn    type 4

#define hydrophilic (hi) and hydrophobic (hb) group============================
variable q atom q
variable judge atom "v_q == -0.632"
dump inter all custom 100 dump.inter v_judge
run 0

group judge variable judge
group oso3 intersect judge ohn
group s  type 5
group so3 union s oso3
group hi union so3 owater
group hb subtract nafion so3
#energy minimize=======================
compute t_nafion   nafion temp
compute t_w        water  temp
compute t_hn       hn     temp

variable etotal equal etotal
variable pe equal pe

velocity nafion create 1000.0  12345 temp t_nafion   
velocity water create 1000.0  12345 temp  t_w
 
fix        2 hn  nvt temp 1000.0 1000.0  50.0 
fix        3 all wall/lj126 zhi 150.0 0.01 2.5 2.5 pbc yes units box
fix        4 hb   wall/lj126 zlo 0.0 v_epsihb 2.8 15.0 pbc yes units box 
fix        5 hi   wall/lj126 zlo 0.0 v_epsihi 2.8 15.0 pbc yes units box

timestep 0.5
dump 1 all atom 10 mini.dump
minimize 1.0e-20 1.0e-20 100000 1000
#=====================================================
#compress progress
variable wallhic equal ramp(150.0,v_zwall)
variable wallhi equal v_zwall
variable temp equal temp
variable etotal equal etotal
variable pe equal pe

velocity nafion create 1000.0 12345 temp t_nafion   
velocity water create 1000.0 12345 temp  t_w

unfix      2
unfix      3
unfix      4
unfix      5
fix        2 hn  nvt temp 1000.0 1000.0 100.0 
fix        3 all  wall/lj126 zhi v_wallhic 0.01 2.5 2.5 pbc yes units box
fix        4 hb   wall/lj126 zlo 0.0 v_epsihb 2.8 15.0 pbc yes units box
fix        5 hi   wall/lj126 zlo 0.0 v_epsihi 2.8 15.0 pbc yes units box

timestep 1.0
thermo 1000
thermo_style custom  step c_t_hn  etotal pe dt
undump 1
dump 1 all atom 2000 compress.dump  
run 20000
write_restart restart.compress
#==========================================
#energy minimize
velocity nafion create 1000.0 12345 temp t_nafion   
velocity water create 1000.0  12345 temp  t_w

unfix      2
unfix      3
unfix      4
unfix      5
fix        2 hn  nvt temp 1000.0 1000.0 50.0 
fix        3 all  wall/lj126 zhi v_wallhi 0.01 2.5 2.5 pbc yes units box
fix        4 hb   wall/lj126 zlo 0.0 v_epsihb 2.8 15.0 pbc yes units box 
fix        5 hi   wall/lj126 zlo 0.0 v_epsihi 2.8 15.0 pbc yes units box

timestep 0.5
minimize 1.0e-20 1.0e-20 100000 1000
#=====================================================
#elimate initial bias
reset_timestep 0

velocity nafion create 1000.0 12345 temp t_nafion   
velocity water create 1000.0 12345 temp  t_w
variable factor1hb equal 0.01*v_epsihb
variable factor1hi equal 0.01*v_epsihi
variable factor2hb equal v_epsihb*ramp(0.01,1.0)
variable factor2hi equal v_epsihi*ramp(0.01,1.0)
variable factor1   equal 0.01
variable factor2   equal ramp(0.01,1.0)

unfix      2
unfix      3
unfix      4
unfix      5
fix        2 hn nvt temp 1000.0 1000.0 100.0 
fix        3 all  wall/lj126 zhi v_wallhi 0.01 2.5 2.5 pbc yes units box
fix        4 hb   wall/lj126 zlo 0.0 v_factor1hb 2.8 15.0 pbc yes units box 
fix        5 hi   wall/lj126 zlo 0.0 v_factor1hi 2.8 15.0 pbc yes units box
fix        6 all  ave/time 10 100 1000  c_t_hn  v_etotal v_pe  file elimate.profile
fix        7 nafion adapt 1 pair lj/cut/coul/long epsilon 1*5 1*5 v_factor1 scale yes reset yes
timestep 1.0
thermo 2000
thermo_style custom  step c_t_hn  etotal pe dt
undump 1
dump 1 all atom 2000 elimate.dump 
dump 2 all atom 50000 elimate-view.dump 
restart  1000000 restart.*.elimate 
run 1000000

unfix     2
unfix     4
unfix     5
unfix     7
fix       2 hn nvt temp 1000.0 353.15 100.0 
fix       4 hb   wall/lj126 zlo 0.0 v_factor2hb 2.8 15.0 pbc yes units box 
fix       5 hi   wall/lj126 zlo 0.0 v_factor2hi 2.8 15.0 pbc yes units box
fix       7 nafion adapt 1 pair lj/cut/coul/long epsilon 1*5 1*5 v_factor2 scale yes reset yes
run 1000000
#=====================================================
#annealing process
reset_timestep 0
unfix 2
unfix 3
unfix 4
unfix 5
unfix 6
unfix 7
fix        2 hn  nvt temp 353.15 1000.15 100.0 
fix        3 all  wall/lj126 zhi v_wallhi 0.01 2.5 2.5 pbc yes units box
fix        4 hb   wall/lj126 zlo 0.0 v_epsihb 2.8 15.0 pbc yes units box 
fix        5 hi   wall/lj126 zlo 0.0 v_epsihi 2.8 15.0 pbc yes units box
fix        6 all  ave/time 10 100 1000  c_t_hn v_etotal v_pe  file anneal.profile
undump 1
undump 2
dump 1 all atom 2000 anneal.dump 
dump 2 all atom 50000 anneal-view.dump 
restart  1000000 restart.*.anneal
run 250000

unfix 2
fix        2 hn  nvt temp 1000.15 353.15 100.0
run 250000
unfix 2
fix        2 hn  nvt temp 353.15 1000.15 100.0 
run 250000
unfix 2
fix        2 hn  nvt temp 1000.15 353.15 100.0 
run 250000
unfix 2
fix        2 hn  nvt temp 353.15 1000.15 100.0 
run 250000
unfix 2
fix        2 hn  nvt temp 1000.15 353.15 100.0 
run 250000
unfix 2
fix        2 hn  nvt temp 353.15 1000.15 100.0 
run 250000
unfix 2
fix        2 hn  nvt temp 1000.15 353.15 100.0 
run 250000
#=====================================================
#nvt process
reset_timestep 0

unfix 2
unfix 3
unfix 4
unfix 5
unfix 6
fix        2 hn  nvt temp 353.15 353.15 100.0 
fix        3 all  wall/lj126 zhi 100.0 0.01 2.5 2.5 pbc yes units box
fix        4 hb   wall/lj126 zlo 0.0 v_epsihb 2.8 15.0 pbc yes units box 
fix        5 hi   wall/lj126 zlo 0.0 v_epsihi 2.8 15.0 pbc yes units box
fix        6 all  ave/time 10 100 1000  c_t_hn v_etotal v_pe  file nvt.profile
undump 1
undump 2
dump 1 all atom 500 nvt.dump 
dump 2 all atom 50000 nvt-view.dump 
restart  1000000 restart.*.nvt
run 3000000

write_data eqionomer.data nocoeff