#water from net
dimension 3
processors * * 1
boundary p p p
units real
atom_style full
neighbor 2 bin
neigh_modify delay 0 every 1 check yes one 3000
read_data eqionomer.data extra/atom/types 1 extra/bond/types 1
read_data o2.data add append offset 9 9 0 0 0 shift 0.0 0.0 0.0
change_box all z final 0.0 175.0 units box

#rondom seed
variable seed equal 212345+step
variable seed2 equal 822465+step

#Change the surface characterization parameters
variable epsihb equal 1.0       #The parameter ε in the Lennard-Jones potential between hydrophobic component atoms and substrate
variable epsihi equal 3.0       #The parameter ε in the Lennard-Jones potential between hydrophilic component atoms and substrate




mass    1   12.017000
mass    2   12.017000
mass    3   18.998403
mass    4   15.999400
mass    5   32.065000
mass    6   15.999400
mass    7   15.999400
mass    8   1.00794
mass    9   1.00794
mass    10  15.999400

#pair SPC
pair_style lj/cut/coul/long  15.0 15.0
    pair_coeff  1  1   0.0844 3.4600 15.0 
    pair_coeff  1  2   0.0896 3.4665 15.0 
    pair_coeff  1  3    0.0647 3.2425 15.0 
    pair_coeff  1  4    0.0899 3.2466 15.0 
    pair_coeff  1  5    0.1704 3.5252 15.0 
    pair_coeff  1  6   0.1249 3.3128  15.0 
    pair_coeff  1  7   0.1249 3.3128  15.0 
    pair_coeff  1  8   0.0291 2.1309  15.0 
    pair_coeff  1  9   0.0291 2.1309  15.0
	pair_coeff  1  10   0.0955 3.2550  15.0

    pair_coeff  2  2   0.0951 3.4730 15.0 
    pair_coeff  2  3    0.0687 3.2490 15.0 
    pair_coeff  2  4    0.0954 3.2531 15.0 
    pair_coeff  2  5    0.1809 3.5317 15.0 
    pair_coeff  2  6   0.1326 3.3193  15.0 
    pair_coeff  2  7   0.1326 3.3193  15.0 
    pair_coeff  2  8   0.0308 2.1374  15.0 
    pair_coeff  2  9   0.0308 2.1374  15.0
	pair_coeff  2  10   0.1013 3.2615  15.0

    pair_coeff  3   3    0.0496 3.0249 15.0 
    pair_coeff  3   4    0.0689 3.0291 15.0 
    pair_coeff  3   5    0.1306 3.3076 15.0 
    pair_coeff  3   6   0.0957 3.0952  15.0 
    pair_coeff  3   7   0.0957 3.0952  15.0 
    pair_coeff  3   8   0.0223 1.91335 15.0 
    pair_coeff  3   9   0.0223 1.91335 15.0
	pair_coeff  3   10  0.0732 3.03745 15.0

    pair_coeff  4   4    0.0957 3.0332 15.0 
    pair_coeff  4   5    0.1814 3.31175 15.0 
    pair_coeff  4   6   0.1330 3.09935  15.0 
    pair_coeff  4   7   0.1330 3.09935  15.0 
    pair_coeff  4   8   0.0309 1.9175   15.0 
    pair_coeff  4   9   0.0309 1.9175   15.0
	pair_coeff  4   10   0.1017 3.0416   15.0

    pair_coeff  5   5    0.3440 3.5903  15.0 
    pair_coeff  5   6   0.2521 3.3779   15.0 
    pair_coeff  5   7   0.2521 3.3779   15.0 
    pair_coeff  5   8   0.0587 2.19605  15.0 
    pair_coeff  5   9   0.0587 2.19605  15.0
	pair_coeff  5   10   0.1927 3.32015  15.0
    
    pair_coeff  6  6   0.1848 3.1655   15.0 
    pair_coeff  6  7   0.1848 3.1655   15.0 
    pair_coeff  6  8   0.0430 1.98365  15.0 
    pair_coeff  6  9   0.0430 1.98365  15.0
	pair_coeff  6  10   0.1413 3.10775  15.0

    pair_coeff  7  7   0.1848 3.1655   15.0 
    pair_coeff  7  8   0.0430 1.98365  15.0 
    pair_coeff  7  9   0.0430 1.98365  15.0
	pair_coeff  7  10   0.1413 3.10775  15.0

    pair_coeff  8  8   0.0100 0.8018   15.0 
    pair_coeff  8  9   0.0100 0.8018   15.0
    pair_coeff  8  10   0.0329 1.9259   15.0	

    pair_coeff  9  9   0.0100 0.8018   15.0 
	pair_coeff  9  10   0.0329 1.9259   15.0
	
	pair_coeff  10 10   0.1080 3.0500   15.0

#bond and angle
bond_style harmonic
    bond_coeff     1  214.6602   1.4982  #C1C1
    bond_coeff     2  350.0000   1.5300  #C2C2
    bond_coeff     3  350.0000   1.5300  #C1C2
    bond_coeff     4  350.0000   1.4200  #C2O
    bond_coeff     5  302.62975  1.3360  #CXF
    bond_coeff     6  350.0000   1.8000  #C2S
    bond_coeff     7  350.0000   1.4800  #SO
    bond_coeff     8  250.0000   1.0000  #OwHw
    bond_coeff     9  542.9783   0.9820  #OhHh
	bond_coeff     10  847.4414   1.208  #O2O2

angle_style harmonic
    angle_coeff 1   53.13695  122.5536   #CxCxCx
    angle_coeff 2   50.16830  118.3191   #CxCxF
    angle_coeff 3   54.11980  121.5020   #FCxF
    angle_coeff 4   50.00000  109.4710   #CxCxO
    angle_coeff 5   50.00000  125.2300   #CxOCx
    angle_coeff 6   50.00000  109.5700   #OCxF
    angle_coeff 7   50.00000  110.3000   #FCxS
    angle_coeff 8   50.00000  116.8100   #CxCxS
    angle_coeff 9   175.0000  102.6500   #CxSO
    angle_coeff 10  175.0000  115.5000   #OSO
    angle_coeff 11  60.0000   109.4700   #HOHw
    angle_coeff 12  39.5132   113.4000   #HOWh

dihedral_style harmonic
    dihedral_coeff  1   0.5000  1  3     #*CxCx*
    dihedral_coeff  2   1.60855 -1 3     #C1C1C1C1
    dihedral_coeff  3   2.0611  -1 3     #FC1C1C1
    dihedral_coeff  4   2.0212  1  3     #FC1C1F
    dihedral_coeff  5   0.5000  1  3     #*CxO*
    dihedral_coeff  6   0.5000  1  3     #*CxS*

#charge
kspace_style pppm 0.0001

#define group
group nafion type  1 2 3 4 5 
group f3c    type  6 8
group h3o    type  7 9 
group water  union f3c h3o
group owater type 6 7
group hn     union water nafion
group ohn    type 4
group oxygen type 10  #for fix nvt
group hno2 union hn oxygen
group fz-o2  empty
group reduce empty 
group re-j1  empty
#============================
#define hb and hi group
variable q atom q
variable q632 atom "v_q == -0.632"
dump q all custom 100 dump.q v_q632
run 0
undump q

group q632 variable q632
group oso3 intersect q632 ohn
group s  type 5
group so3 union s oso3
group hi union so3 owater
group hb subtract nafion so3
#============================
compute t_hn       hn  temp
compute t_o2       oxygen temp
compute_modify     t_o2   dynamic yes

compute o2chunk  oxygen  chunk/atom bin/1d z lower 0.5 units box

velocity oxygen create 353.15 12345 temp  t_o2

variable hnzwall equal ramp(175.0,100.0)
variable o2zwall equal ramp(175.0,110.0)

fix        1 hn nvt temp 353.0 353.0 100.0 
fix        2 oxygen nvt temp 353.0 353.0 100.0
fix        3 hn      wall/lj126 zhi v_hnzwall 0.01 2.5 2.5 pbc yes units box
fix        4 oxygen  wall/lj126 zhi v_o2zwall 0.01 2.5 2.5 pbc yes units box
fix        5 hb      wall/lj126 zlo 0.0 v_epsihb 2.8 15.0 pbc yes units box 
fix        6 hi      wall/lj126 zlo 0.0 v_epsihi 2.8 15.0 pbc yes units box
fix        7 oxygen  wall/lj126 zlo 0.0 0.7      2.8 15.0 pbc yes units box
timestep 1.0
thermo 2000
thermo_style custom  step atoms c_t_hn c_t_o2 etotal pe
dump 1 all atom 2000 compress.dump 
run 100000
#============================
reset_timestep 0

unfix 1
unfix 2
unfix 3
unfix 4
unfix 5
unfix 6
unfix 7
undump 1
fix        1 hn nvt temp 353.0 353.0 100.0 
fix        2 oxygen nvt temp 353.0 353.0 100.0
fix        3 hn      wall/lj126 zhi 100.0 0.01 2.5 2.5 pbc yes units box
fix        4 oxygen  wall/lj126 zhi 110.0 0.01 2.5 2.5 pbc yes units box
fix        5 hb      wall/lj126 zlo 0.0 v_epsihb 2.8 15.0 pbc yes units box 
fix        6 hi      wall/lj126 zlo 0.0 v_epsihi 2.8 15.0 pbc yes units box
fix        7 oxygen  wall/lj126 zlo 0.0 0.7      2.8 15.0 pbc yes units box
fix        8 all  ave/time 10 100 1000  c_t_hn c_t_o2 file statistics.profile 
fix        9 oxygen ave/chunk 500 1 500 o2chunk density/number file zdo2.dat

timestep 1.0
thermo 2000
thermo_style custom  step atoms c_t_hn c_t_o2 etotal pe
dump 1 all atom 2000 perme.dump
dump 2 oxygen atom 500 oxygen.dump
dump 3 fz-o2 atom 500 reo2.dump
restart 1000000 restart.*.perme
#1======================================================
#REGION for inserting o2 molecule
molecule        oxygen oxygen.txt
region          add block -0.5 55.0 -0.5 55.0 106.0 108.0
#random velocity for inserting o2
variable theta equal random(0.0,1.0,${seed})
variable alpha equal random(0.0,1.0,${seed2})
variable in_vx equal 0.007*cos(v_theta)*sin(v_alpha)
variable in_vy equal 0.007*cos(v_theta)*cos(v_alpha)
variable in_vz equal 0.007*sin(v_theta)
#1======================================================


#2======================================================
#PICK up special oxygen molecules

variable zlimit atom z
#2======================================================


#3======================================================
#OXYGEN reduce process--a loop judge process

variable a loop 250000
label loop

#3-2==============================================
#PICK up special oxygen molecules into group 'reduce', which meet two kinds of demand
#demand 1: Substrate atoms in the neighborhood of this oxygen molecule.

variable judgeo1 atom "v_zlimit <= 3.1"
dump inter2 all custom 10 dump.inter v_judgeo1
fix  insert oxygen ave/time 1000 1 1000 v_seed file insertpre.profile
run 0

group re-j1 clear
group reduce clear
group re-j1 variable judgeo1
group reduce intersect re-j1 oxygen
group reduce include molecule
variable nre equal count(reduce)/2
group fz-o2 union fz-o2 reduce
group oxygen subtract oxygen reduce
group hno2 union hn oxygen
group allbox type 1 2 3 4 5 6 7 8 9 10
#3-2==============================================


#3-4==============================================
#OUTPUT some important informations

if "${nre} >=1" then "velocity fz-o2 set 0.0 0.0 0.0" &
"neigh_modify exclude group fz-o2 allbox" & 
"delete_bonds fz-o2 multi"

if "${nre} >=1" then "unfix insert" & 
"fix insert oxygen deposit ${nre} 0 1 ${seed} region add near 2.0 vx ${in_vx} ${in_vx} vy ${in_vy} ${in_vy} vz ${in_vz} ${in_vz} mol oxygen units box"

if "${nre} >=1" then "write_dump all atom resys.*.dump modify pad 7"
if "${nre} >=1" then "write_restart  restart.*.perme"
#3-4==============================================

run 100
undump inter2
unfix insert

next a 
jump SELF loop
label break
#3======================================================
